db/data/3810978016185303943117117527129747107.z3.out
unsat
-------------------
21.428200401
